120
150
20
59
28
21
53
44
77
22
53
83
39
49
36
29
28
30
68
99
50
33
37
45
25
57
80
86
33
39
70
29
53
74
88
23
99
24
45
40
56
58
30
45
36
25
80
66
32
22
55
94
90
59
30
53
61
36
73
40
50
50
88
90
50
96
99
47
83
90
53
97
82
37
99
50
60
88
94
98
76
99
100
47
82
83
44
53
88
100
61
60
50
93
99
22
56
74
100
80
67
100
55
97
47
61
53
74
66
76
22
52
61
68
47
70
68
68
82
97
25
53
